50
18162

122 448
900 773
218 790
333 984
264 332
406 14
266 912
285 560
991 872
999 363
551 626
228 731
554 106
519 329
650 414
186 433
45 121
290 60
57 4
318 399
543 852
28 510
114 3
267 188
126 37
482 762
82 949
937 310
325 995
757 730
144 912
947 934
357 163
464 188
566 302
977 685
887 327
2 590
439 794
749 85
971 681
647 372
206 615
208 764
127 902
335 496
718 414
567 29
932 870
113 586
